76
120
96	2
95	4
94	3
93	1
92	4
91	1
90	4
89	1
88	1
87	4
85	3
84	2
83	6
82	2
81	2
80	1
79	4
78	2
77	2
76	1
75	2
74	3
73	2
72	1
71	2
70	3
69	6
68	3
67	5
66	3
65	5
64	1
63	7
60	2
59	1
58	5
57	3
56	1
55	1
54	5
53	7
52	1
51	1
50	2
49	1
48	4
47	2
45	1
42	1
41	4
40	2
39	2
38	3
37	2
36	1
35	5
33	4
32	1
31	4
30	2
29	4
28	1
27	2
25	3
24	3
23	2
22	1
21	3
20	2
19	5
18	2
17	2
16	4
15	2
14	1
13	2
